10
0 295 281 412 94 50 568 637 231 630
295 0 125 134 286 273 293 700 491 699
281 125 0 155 311 242 295 576 427 575
412 134 155 0 415 380 161 688 580 689
94 286 311 415 0 134 575 728 315 721
50 273 242 380 134 0 533 595 227 588
568 293 295 161 575 533 0 730 718 734
637 700 576 688 728 595 730 0 513 15
231 491 427 580 315 227 718 513 0 502
630 699 575 689 721 588 734 15 502 0
